(set-info :smt-lib-version 2.6)
(set-logic UF)
(set-info :source |
Generated by: Andrew Reynolds
Generated on: 2017-04-28
Generator: Sledgehammer, converted to v2.6 by CVC4
Application: Verfication goals in Isabelle
Target solver: CVC4, Z3
Publications: "A Decision Procedure for (Co)Datatypes" by Andrew Reynolds and Jasmin Blanchette, CADE 2015.
|)
(set-info :license "https://creativecommons.org/licenses/by/4.0/")
(set-info :category "industrial")
(set-info :status unsat)


(declare-sort A$ 0)
(declare-sort B$ 0)
(declare-sort Nat$ 0)
(declare-sort A_set$ 0)
(declare-sort B_set$ 0)
(declare-sort A_a_fun$ 0)
(declare-sort B_b_fun$ 0)
(declare-sort A_nat_fun$ 0)
(declare-sort B_nat_fun$ 0)
(declare-sort A_bool_fun$ 0)
(declare-sort B_bool_fun$ 0)
(declare-sort Nat_nat_fun$ 0)
(declare-sort Nat_bool_fun$ 0)
(declare-sort A_b_rbt_nat_fun$ 0)
(declare-sort A_a_bool_fun_fun$ 0)
(declare-sort A_b_bool_fun_fun$ 0)
(declare-sort A_b_rbt_bool_fun$ 0)
(declare-sort B_a_bool_fun_fun$ 0)
(declare-sort B_b_bool_fun_fun$ 0)
(declare-sort A_b_rbt_a_b_rbt_fun$ 0)
(declare-sort A_b_rbt_a_b_rbt_bool_fun_fun$ 0)
(declare-sort Color$ 0)
(declare-sort A_b_rbt$ 0)
(declare-sort B_b_rbt$ 0)
(declare-sort B_a_rbt$ 0)
(declare-sort A_a_rbt$ 0)
(declare-fun r$ () Color$)
(declare-fun b$ () Color$)
(declare-fun empty$ () A_b_rbt$)
(declare-fun select$ (A_b_rbt$) Color$)
(declare-fun selecta$ (A_b_rbt$) A_b_rbt$)
(declare-fun selectb$ (A_b_rbt$) A$)
(declare-fun selectc$ (A_b_rbt$) B$)
(declare-fun selectd$ (A_b_rbt$) A_b_rbt$)
(declare-fun branch$ (Color$ A_b_rbt$ A$ B$ A_b_rbt$) A_b_rbt$)
(declare-fun empty$a () B_b_rbt$)
(declare-fun selecte$ (B_b_rbt$) Color$)
(declare-fun selectf$ (B_b_rbt$) B_b_rbt$)
(declare-fun selectg$ (B_b_rbt$) B$)
(declare-fun selecth$ (B_b_rbt$) B$)
(declare-fun selecti$ (B_b_rbt$) B_b_rbt$)
(declare-fun branch$a (Color$ B_b_rbt$ B$ B$ B_b_rbt$) B_b_rbt$)
(declare-fun empty$b () B_a_rbt$)
(declare-fun selectj$ (B_a_rbt$) Color$)
(declare-fun selectk$ (B_a_rbt$) B_a_rbt$)
(declare-fun selectl$ (B_a_rbt$) B$)
(declare-fun selectm$ (B_a_rbt$) A$)
(declare-fun selectn$ (B_a_rbt$) B_a_rbt$)
(declare-fun branch$b (Color$ B_a_rbt$ B$ A$ B_a_rbt$) B_a_rbt$)
(declare-fun empty$c () A_a_rbt$)
(declare-fun selecto$ (A_a_rbt$) Color$)
(declare-fun selectp$ (A_a_rbt$) A_a_rbt$)
(declare-fun selectq$ (A_a_rbt$) A$)
(declare-fun selectr$ (A_a_rbt$) A$)
(declare-fun selects$ (A_a_rbt$) A_a_rbt$)
(declare-fun branch$c (Color$ A_a_rbt$ A$ A$ A_a_rbt$) A_a_rbt$)
(declare-fun t$ () A_b_rbt$)
(declare-fun uu$ (B_set$) B_bool_fun$)
(declare-fun bot$ () A_set$)
(declare-fun one$ () Nat$)
(declare-fun suc$ (Nat$) Nat$)
(declare-fun uua$ (A_set$) A_bool_fun$)
(declare-fun uub$ () A_a_bool_fun_fun$)
(declare-fun uuc$ () B_b_bool_fun_fun$)
(declare-fun uud$ () A_b_rbt_a_b_rbt_bool_fun_fun$)
(declare-fun bot$a () B_set$)
(declare-fun bot$b () Nat$)
(declare-fun inv1$ (A_b_rbt$) Bool)
(declare-fun less$ (Nat$) Nat_bool_fun$)
(declare-fun plus$ (Nat$) Nat_nat_fun$)
(declare-fun size$ (Color$) Nat$)
(declare-fun zero$ () Nat$)
(declare-fun inv1l$ (A_b_rbt$) Bool)
(declare-fun less$a (A_set$ A_set$) Bool)
(declare-fun less$b (B_set$ B_set$) Bool)
(declare-fun size$a (A_b_rbt$) Nat$)
(declare-fun member$ (B$ B_set$) Bool)
(declare-fun of_nat$ (Nat$) Nat$)
(declare-fun bheight$ (A_b_rbt$) Nat$)
(declare-fun collect$ (B_bool_fun$) B_set$)
(declare-fun fun_app$ (B_bool_fun$ B$) Bool)
(declare-fun less_eq$ (Nat$) Nat_bool_fun$)
(declare-fun map_rbt$ (A_a_fun$ B_b_fun$) A_b_rbt_a_b_rbt_fun$)
(declare-fun member$a (A$ A_set$) Bool)
(declare-fun rel_rbt$ (A_a_bool_fun_fun$ B_b_bool_fun_fun$) A_b_rbt_a_b_rbt_bool_fun_fun$)
(declare-fun collect$a (A_bool_fun$) A_set$)
(declare-fun color_of$ (A_b_rbt$) Color$)
(declare-fun fun_app$a (A_bool_fun$ A$) Bool)
(declare-fun fun_app$b (A_b_rbt_bool_fun$ A_b_rbt$) Bool)
(declare-fun fun_app$c (A_b_rbt_a_b_rbt_bool_fun_fun$ A_b_rbt$) A_b_rbt_bool_fun$)
(declare-fun fun_app$d (B_b_bool_fun_fun$ B$) B_bool_fun$)
(declare-fun fun_app$e (A_a_bool_fun_fun$ A$) A_bool_fun$)
(declare-fun fun_app$f (Nat_bool_fun$ Nat$) Bool)
(declare-fun fun_app$g (Nat_nat_fun$ Nat$) Nat$)
(declare-fun fun_app$h (B_a_bool_fun_fun$ B$) A_bool_fun$)
(declare-fun fun_app$i (A_b_bool_fun_fun$ A$) B_bool_fun$)
(declare-fun fun_app$j (A_a_fun$ A$) A$)
(declare-fun fun_app$k (B_b_fun$ B$) B$)
(declare-fun fun_app$l (A_b_rbt_a_b_rbt_fun$ A_b_rbt$) A_b_rbt$)
(declare-fun fun_app$m (A_b_rbt_nat_fun$ A_b_rbt$) Nat$)
(declare-fun less_eq$a (A_set$ A_set$) Bool)
(declare-fun less_eq$b (B_set$ B_set$) Bool)
(declare-fun pred_rbt$ (A_bool_fun$ B_bool_fun$ A_b_rbt$) Bool)
(declare-fun rbt_less$ (A_a_bool_fun_fun$ A$) A_b_rbt_bool_fun$)
(declare-fun rel_rbt$a (B_b_bool_fun_fun$ B_b_bool_fun_fun$ B_b_rbt$ B_b_rbt$) Bool)
(declare-fun rel_rbt$b (B_b_bool_fun_fun$ B_a_bool_fun_fun$ B_b_rbt$ B_a_rbt$) Bool)
(declare-fun rel_rbt$c (B_b_bool_fun_fun$ A_b_bool_fun_fun$ B_a_rbt$ B_b_rbt$) Bool)
(declare-fun rel_rbt$d (B_b_bool_fun_fun$ A_a_bool_fun_fun$ B_a_rbt$ B_a_rbt$) Bool)
(declare-fun rel_rbt$e (B_a_bool_fun_fun$ B_a_bool_fun_fun$ B_b_rbt$ A_a_rbt$) Bool)
(declare-fun rel_rbt$f (B_a_bool_fun_fun$ A_a_bool_fun_fun$ B_a_rbt$ A_a_rbt$) Bool)
(declare-fun rel_rbt$g (A_b_bool_fun_fun$ A_b_bool_fun_fun$ A_a_rbt$ B_b_rbt$) Bool)
(declare-fun rel_rbt$h (A_b_bool_fun_fun$ A_a_bool_fun_fun$ A_a_rbt$ B_a_rbt$) Bool)
(declare-fun rel_rbt$i (A_a_bool_fun_fun$ A_a_bool_fun_fun$ A_a_rbt$ A_a_rbt$) Bool)
(declare-fun rel_rbt$j (B_a_bool_fun_fun$ B_b_bool_fun_fun$ B_b_rbt$ A_b_rbt$) Bool)
(declare-fun set1_rbt$ (A_b_rbt$) A_set$)
(declare-fun set2_rbt$ (A_b_rbt$) B_set$)
(declare-fun size_rbt$ (A_nat_fun$ B_nat_fun$) A_b_rbt_nat_fun$)
(declare-fun pred_rbt$a (B_bool_fun$ B_bool_fun$ B_b_rbt$) Bool)
(declare-fun pred_rbt$b (B_bool_fun$ A_bool_fun$ B_a_rbt$) Bool)
(declare-fun pred_rbt$c (A_bool_fun$ A_bool_fun$ A_a_rbt$) Bool)
(declare-fun set1_rbt$a (B_b_rbt$) B_set$)
(declare-fun set1_rbt$b (B_a_rbt$) B_set$)
(declare-fun set1_rbt$c (A_a_rbt$) A_set$)
(declare-fun set2_rbt$a (B_b_rbt$) B_set$)
(declare-fun set2_rbt$b (B_a_rbt$) A_set$)
(declare-fun set2_rbt$c (A_a_rbt$) A_set$)
(declare-fun rbt_sorted$ (A_a_bool_fun_fun$) A_b_rbt_bool_fun$)
(declare-fun size_color$ (Color$) Nat$)
(declare-fun rbt_greater$ (A_a_bool_fun_fun$ A$) A_b_rbt_bool_fun$)
(declare-fun strict_mono$ (Nat_nat_fun$) Bool)
(assert (forall ((?v0 B_set$) (?v1 B$)) (! (= (fun_app$ (uu$ ?v0) ?v1) (member$ ?v1 ?v0)) :pattern ((fun_app$ (uu$ ?v0) ?v1)))))
(assert (forall ((?v0 A_set$) (?v1 A$)) (! (= (fun_app$a (uua$ ?v0) ?v1) (member$a ?v1 ?v0)) :pattern ((fun_app$a (uua$ ?v0) ?v1)))))
(assert (forall ((?v0 A_b_rbt$) (?v1 A_b_rbt$)) (! (= (fun_app$b (fun_app$c uud$ ?v0) ?v1) (= ?v0 ?v1)) :pattern ((fun_app$b (fun_app$c uud$ ?v0) ?v1)))))
(assert (forall ((?v0 B$) (?v1 B$)) (! (= (fun_app$ (fun_app$d uuc$ ?v0) ?v1) (= ?v0 ?v1)) :pattern ((fun_app$ (fun_app$d uuc$ ?v0) ?v1)))))
(assert (forall ((?v0 A$) (?v1 A$)) (! (= (fun_app$a (fun_app$e uub$ ?v0) ?v1) (= ?v0 ?v1)) :pattern ((fun_app$a (fun_app$e uub$ ?v0) ?v1)))))
(assert (not (inv1l$ t$)))
(assert (inv1$ t$))
(assert (forall ((?v0 Color$) (?v1 A_b_rbt$) (?v2 A$) (?v3 B$) (?v4 A_b_rbt$)) (! (= (inv1l$ (branch$ ?v0 ?v1 ?v2 ?v3 ?v4)) (and (inv1$ ?v1) (inv1$ ?v4))) :pattern ((branch$ ?v0 ?v1 ?v2 ?v3 ?v4)))))
(assert (= (inv1l$ empty$) true))
(assert (= (inv1$ empty$) true))
(assert (forall ((?v0 Color$) (?v1 A_b_rbt$) (?v2 A$) (?v3 B$) (?v4 A_b_rbt$)) (! (= (inv1$ (branch$ ?v0 ?v1 ?v2 ?v3 ?v4)) (and (inv1$ ?v1) (and (inv1$ ?v4) (or (= ?v0 b$) (and (= (color_of$ ?v1) b$) (= (color_of$ ?v4) b$)))))) :pattern ((branch$ ?v0 ?v1 ?v2 ?v3 ?v4)))))
(assert (forall ((?v0 Color$) (?v1 A_b_rbt$) (?v2 A$) (?v3 B$) (?v4 A_b_rbt$) (?v5 Color$) (?v6 A_b_rbt$) (?v7 A$) (?v8 B$) (?v9 A_b_rbt$)) (= (= (branch$ ?v0 ?v1 ?v2 ?v3 ?v4) (branch$ ?v5 ?v6 ?v7 ?v8 ?v9)) (and (= ?v0 ?v5) (and (= ?v1 ?v6) (and (= ?v2 ?v7) (and (= ?v3 ?v8) (= ?v4 ?v9)))))) ))
(assert (forall ((?v0 Color$) (?v1 A_b_rbt$) (?v2 A$) (?v3 B$) (?v4 A_b_rbt$)) (! (= (color_of$ (branch$ ?v0 ?v1 ?v2 ?v3 ?v4)) ?v0) :pattern ((branch$ ?v0 ?v1 ?v2 ?v3 ?v4)))))
(assert (= (color_of$ empty$) b$))
(assert (forall ((?v0 A_b_rbt$)) (=> (and (=> (= ?v0 empty$) false) (forall ((?v1 Color$) (?v2 A_b_rbt$) (?v3 A$) (?v4 B$) (?v5 A_b_rbt$)) (=> (= ?v0 (branch$ ?v1 ?v2 ?v3 ?v4 ?v5)) false) )) false) ))
(assert (forall ((?v0 Color$) (?v1 A_b_rbt$) (?v2 A$) (?v3 B$) (?v4 A_b_rbt$)) (not (= empty$ (branch$ ?v0 ?v1 ?v2 ?v3 ?v4))) ))
(assert (forall ((?v0 A_b_rbt$)) (=> (and (=> (= ?v0 empty$) false) (and (forall ((?v1 A_b_rbt$) (?v2 A$) (?v3 B$) (?v4 A_b_rbt$)) (=> (= ?v0 (branch$ r$ ?v1 ?v2 ?v3 ?v4)) false) ) (forall ((?v1 A_b_rbt$) (?v2 A$) (?v3 B$) (?v4 A_b_rbt$)) (=> (= ?v0 (branch$ b$ ?v1 ?v2 ?v3 ?v4)) false) ))) false) ))
(assert (forall ((?v0 A_bool_fun$) (?v1 B_bool_fun$) (?v2 Color$) (?v3 A_b_rbt$) (?v4 A$) (?v5 B$) (?v6 A_b_rbt$)) (! (= (pred_rbt$ ?v0 ?v1 (branch$ ?v2 ?v3 ?v4 ?v5 ?v6)) (and (pred_rbt$ ?v0 ?v1 ?v3) (and (fun_app$a ?v0 ?v4) (and (fun_app$ ?v1 ?v5) (pred_rbt$ ?v0 ?v1 ?v6))))) :pattern ((pred_rbt$ ?v0 ?v1 (branch$ ?v2 ?v3 ?v4 ?v5 ?v6))))))
(assert (forall ((?v0 A_a_bool_fun_fun$)) (! (= (fun_app$b (rbt_sorted$ ?v0) empty$) true) :pattern ((rbt_sorted$ ?v0)))))
(assert (forall ((?v0 Color$)) (=> (and (=> (= ?v0 r$) false) (=> (= ?v0 b$) false)) false) ))
(assert (not (= r$ b$)))
(assert (forall ((?v0 A_bool_fun$) (?v1 B_bool_fun$)) (pred_rbt$ ?v0 ?v1 empty$) ))
(assert (forall ((?v0 A_a_bool_fun_fun$) (?v1 A$)) (! (= (fun_app$b (rbt_greater$ ?v0 ?v1) empty$) true) :pattern ((rbt_greater$ ?v0 ?v1)))))
(assert (forall ((?v0 A_a_bool_fun_fun$) (?v1 A$)) (! (= (fun_app$b (rbt_less$ ?v0 ?v1) empty$) true) :pattern ((rbt_less$ ?v0 ?v1)))))
(assert (forall ((?v0 A_a_bool_fun_fun$) (?v1 A$) (?v2 Color$) (?v3 A_b_rbt$) (?v4 A$) (?v5 B$) (?v6 A_b_rbt$)) (! (= (fun_app$b (rbt_greater$ ?v0 ?v1) (branch$ ?v2 ?v3 ?v4 ?v5 ?v6)) (and (fun_app$a (fun_app$e ?v0 ?v1) ?v4) (and (fun_app$b (rbt_greater$ ?v0 ?v1) ?v3) (fun_app$b (rbt_greater$ ?v0 ?v1) ?v6)))) :pattern ((fun_app$b (rbt_greater$ ?v0 ?v1) (branch$ ?v2 ?v3 ?v4 ?v5 ?v6))))))
(assert (forall ((?v0 A_a_bool_fun_fun$) (?v1 A$) (?v2 Color$) (?v3 A_b_rbt$) (?v4 A$) (?v5 B$) (?v6 A_b_rbt$)) (! (= (fun_app$b (rbt_less$ ?v0 ?v1) (branch$ ?v2 ?v3 ?v4 ?v5 ?v6)) (and (fun_app$a (fun_app$e ?v0 ?v4) ?v1) (and (fun_app$b (rbt_less$ ?v0 ?v1) ?v3) (fun_app$b (rbt_less$ ?v0 ?v1) ?v6)))) :pattern ((fun_app$b (rbt_less$ ?v0 ?v1) (branch$ ?v2 ?v3 ?v4 ?v5 ?v6))))))
(assert (forall ((?v0 A_a_bool_fun_fun$) (?v1 Color$) (?v2 A_b_rbt$) (?v3 A$) (?v4 B$) (?v5 A_b_rbt$)) (! (= (fun_app$b (rbt_sorted$ ?v0) (branch$ ?v1 ?v2 ?v3 ?v4 ?v5)) (and (fun_app$b (rbt_less$ ?v0 ?v3) ?v2) (and (fun_app$b (rbt_greater$ ?v0 ?v3) ?v5) (and (fun_app$b (rbt_sorted$ ?v0) ?v2) (fun_app$b (rbt_sorted$ ?v0) ?v5))))) :pattern ((fun_app$b (rbt_sorted$ ?v0) (branch$ ?v1 ?v2 ?v3 ?v4 ?v5))))))
(assert (forall ((?v0 Nat$) (?v1 Nat$)) (= (not (= ?v0 ?v1)) (or (fun_app$f (less$ ?v0) ?v1) (fun_app$f (less$ ?v1) ?v0))) ))
(assert (forall ((?v0 Nat$) (?v1 Nat$)) (= (not (fun_app$f (less$ ?v0) ?v1)) (or (fun_app$f (less$ ?v1) ?v0) (= ?v0 ?v1))) ))
(assert (forall ((?v0 Nat$) (?v1 Nat$)) (=> (and (=> (fun_app$f (less$ ?v0) ?v1) false) (and (=> (= ?v0 ?v1) false) (=> (fun_app$f (less$ ?v1) ?v0) false))) false) ))
(assert (forall ((?v0 Nat_bool_fun$) (?v1 Nat$)) (=> (forall ((?v2 Nat$)) (=> (forall ((?v3 Nat$)) (=> (fun_app$f (less$ ?v3) ?v2) (fun_app$f ?v0 ?v3)) ) (fun_app$f ?v0 ?v2)) ) (fun_app$f ?v0 ?v1)) ))
(assert (forall ((?v0 Nat$) (?v1 Nat_nat_fun$) (?v2 Nat$) (?v3 Nat$)) (=> (and (= ?v0 (fun_app$g ?v1 ?v2)) (and (fun_app$f (less$ ?v2) ?v3) (forall ((?v4 Nat$) (?v5 Nat$)) (=> (fun_app$f (less$ ?v4) ?v5) (fun_app$f (less$ (fun_app$g ?v1 ?v4)) (fun_app$g ?v1 ?v5))) ))) (fun_app$f (less$ ?v0) (fun_app$g ?v1 ?v3))) ))
(assert (forall ((?v0 Nat$) (?v1 Nat$) (?v2 Nat$)) (=> (and (= ?v0 ?v1) (fun_app$f (less$ ?v1) ?v2)) (fun_app$f (less$ ?v0) ?v2)) ))
(assert (forall ((?v0 Nat$) (?v1 Nat$)) (=> (and (fun_app$f (less$ ?v0) ?v1) (=> (not false) (fun_app$f (less$ ?v1) ?v0))) false) ))
(assert (forall ((?v0 B_set$)) (= (collect$ (uu$ ?v0)) ?v0) ))
(assert (forall ((?v0 A_set$)) (= (collect$a (uua$ ?v0)) ?v0) ))
(assert (forall ((?v0 B$) (?v1 B_bool_fun$)) (= (member$ ?v0 (collect$ ?v1)) (fun_app$ ?v1 ?v0)) ))
(assert (forall ((?v0 A$) (?v1 A_bool_fun$)) (= (member$a ?v0 (collect$a ?v1)) (fun_app$a ?v1 ?v0)) ))
(assert (forall ((?v0 Nat$) (?v1 Nat$) (?v2 Nat_nat_fun$) (?v3 Nat$)) (=> (and (fun_app$f (less$ ?v0) ?v1) (and (= (fun_app$g ?v2 ?v1) ?v3) (forall ((?v4 Nat$) (?v5 Nat$)) (=> (fun_app$f (less$ ?v4) ?v5) (fun_app$f (less$ (fun_app$g ?v2 ?v4)) (fun_app$g ?v2 ?v5))) ))) (fun_app$f (less$ (fun_app$g ?v2 ?v0)) ?v3)) ))
(assert (forall ((?v0 Nat$)) (not (fun_app$f (less$ ?v0) ?v0)) ))
(assert (forall ((?v0 Nat$)) (not (fun_app$f (less$ ?v0) ?v0)) ))
(assert (forall ((?v0 Nat$)) (exists ((?v1 Nat$)) (fun_app$f (less$ ?v0) ?v1) ) ))
(assert (forall ((?v0 Nat$) (?v1 Nat$)) (or (fun_app$f (less$ ?v0) ?v1) (or (= ?v0 ?v1) (fun_app$f (less$ ?v1) ?v0))) ))
(assert (forall ((?v0 Nat$) (?v1 Nat$)) (=> (not (fun_app$f (less$ ?v0) ?v1)) (= (not (fun_app$f (less$ ?v1) ?v0)) (= ?v1 ?v0))) ))
(assert (forall ((?v0 Nat$) (?v1 Nat$)) (=> (and (not (= ?v0 ?v1)) (and (=> (fun_app$f (less$ ?v0) ?v1) false) (=> (fun_app$f (less$ ?v1) ?v0) false))) false) ))
(assert (forall ((?v0 Nat$) (?v1 Nat$)) (=> (fun_app$f (less$ ?v0) ?v1) (not (fun_app$f (less$ ?v1) ?v0))) ))
(assert (forall ((?v0 Nat$) (?v1 Nat$)) (=> (fun_app$f (less$ ?v0) ?v1) (not (= ?v0 ?v1))) ))
(assert (forall ((?v0 Nat$) (?v1 Nat$)) (=> (fun_app$f (less$ ?v0) ?v1) (not (= ?v0 ?v1))) ))
(assert (forall ((?v0 Nat$) (?v1 Nat$)) (=> (fun_app$f (less$ ?v0) ?v1) (not (= ?v1 ?v0))) ))
(assert (forall ((?v0 Nat$) (?v1 Nat$)) (=> (fun_app$f (less$ ?v0) ?v1) (= (not (fun_app$f (less$ ?v1) ?v0)) true)) ))
(assert (forall ((?v0 Nat$) (?v1 Nat$) (?v2 Bool)) (=> (fun_app$f (less$ ?v0) ?v1) (= (=> (fun_app$f (less$ ?v1) ?v0) ?v2) true)) ))
(assert (forall ((?v0 Nat$) (?v1 Nat$)) (=> (fun_app$f (less$ ?v0) ?v1) (= (= ?v0 ?v1) false)) ))
(assert (forall ((?v0 Nat$) (?v1 Nat$)) (=> (fun_app$f (less$ ?v0) ?v1) (= (= ?v1 ?v0) false)) ))
(assert (forall ((?v0 Nat$) (?v1 Nat$)) (=> (and (fun_app$f (less$ ?v0) ?v1) (fun_app$f (less$ ?v1) ?v0)) false) ))
(assert (forall ((?v0 Nat$) (?v1 Nat$)) (=> (and (fun_app$f (less$ ?v0) ?v1) (fun_app$f (less$ ?v1) ?v0)) false) ))
(assert (forall ((?v0 Nat$) (?v1 Nat$)) (=> (and (fun_app$f (less$ ?v0) ?v1) (fun_app$f (less$ ?v1) ?v0)) false) ))
(assert (forall ((?v0 Nat$) (?v1 Nat$) (?v2 Nat$)) (=> (and (fun_app$f (less$ ?v0) ?v1) (fun_app$f (less$ ?v1) ?v2)) (fun_app$f (less$ ?v0) ?v2)) ))
(assert (forall ((?v0 Nat$) (?v1 Nat$) (?v2 Nat$)) (=> (and (fun_app$f (less$ ?v0) ?v1) (fun_app$f (less$ ?v1) ?v2)) (fun_app$f (less$ ?v0) ?v2)) ))
(assert (forall ((?v0 Nat$) (?v1 Nat$) (?v2 Nat$)) (=> (and (fun_app$f (less$ ?v0) ?v1) (fun_app$f (less$ ?v2) ?v0)) (fun_app$f (less$ ?v2) ?v1)) ))
(assert (forall ((?v0 Nat$) (?v1 Nat_nat_fun$) (?v2 Nat$) (?v3 Nat$)) (=> (and (fun_app$f (less$ ?v0) (fun_app$g ?v1 ?v2)) (and (fun_app$f (less$ ?v2) ?v3) (forall ((?v4 Nat$) (?v5 Nat$)) (=> (fun_app$f (less$ ?v4) ?v5) (fun_app$f (less$ (fun_app$g ?v1 ?v4)) (fun_app$g ?v1 ?v5))) ))) (fun_app$f (less$ ?v0) (fun_app$g ?v1 ?v3))) ))
(assert (forall ((?v0 Nat$) (?v1 Nat$) (?v2 Nat_nat_fun$) (?v3 Nat$)) (=> (and (fun_app$f (less$ ?v0) ?v1) (and (fun_app$f (less$ (fun_app$g ?v2 ?v1)) ?v3) (forall ((?v4 Nat$) (?v5 Nat$)) (=> (fun_app$f (less$ ?v4) ?v5) (fun_app$f (less$ (fun_app$g ?v2 ?v4)) (fun_app$g ?v2 ?v5))) ))) (fun_app$f (less$ (fun_app$g ?v2 ?v0)) ?v3)) ))
(assert (forall ((?v0 Nat$) (?v1 Nat$) (?v2 Nat$)) (=> (and (fun_app$f (less$ ?v0) ?v1) (= ?v1 ?v2)) (fun_app$f (less$ ?v0) ?v2)) ))
(assert (forall ((?v0 Nat$)) (exists ((?v1 Nat$)) (forall ((?v2 Nat$)) (=> (fun_app$f (less$ ?v2) ?v1) (= (fun_app$f (less$ ?v0) ?v2) false)) ) ) ))
(assert (forall ((?v0 Nat$)) (exists ((?v1 Nat$)) (forall ((?v2 Nat$)) (=> (fun_app$f (less$ ?v2) ?v1) (= (fun_app$f (less$ ?v2) ?v0) true)) ) ) ))
(assert (forall ((?v0 Nat$)) (exists ((?v1 Nat$)) (forall ((?v2 Nat$)) (=> (fun_app$f (less$ ?v2) ?v1) (= (not (= ?v2 ?v0)) true)) ) ) ))
(assert (forall ((?v0 Nat$)) (exists ((?v1 Nat$)) (forall ((?v2 Nat$)) (=> (fun_app$f (less$ ?v2) ?v1) (= (= ?v2 ?v0) false)) ) ) ))
(assert (forall ((?v0 Nat_bool_fun$) (?v1 Nat_bool_fun$) (?v2 Nat_bool_fun$) (?v3 Nat_bool_fun$)) (=> (and (exists ((?v4 Nat$)) (forall ((?v5 Nat$)) (=> (fun_app$f (less$ ?v4) ?v5) (= (fun_app$f ?v0 ?v5) (fun_app$f ?v1 ?v5))) ) ) (exists ((?v4 Nat$)) (forall ((?v5 Nat$)) (=> (fun_app$f (less$ ?v4) ?v5) (= (fun_app$f ?v2 ?v5) (fun_app$f ?v3 ?v5))) ) )) (exists ((?v4 Nat$)) (forall ((?v5 Nat$)) (=> (fun_app$f (less$ ?v4) ?v5) (= (and (fun_app$f ?v0 ?v5) (fun_app$f ?v2 ?v5)) (and (fun_app$f ?v1 ?v5) (fun_app$f ?v3 ?v5)))) ) )) ))
(assert (forall ((?v0 Nat_bool_fun$) (?v1 Nat_bool_fun$) (?v2 Nat_bool_fun$) (?v3 Nat_bool_fun$)) (=> (and (exists ((?v4 Nat$)) (forall ((?v5 Nat$)) (=> (fun_app$f (less$ ?v4) ?v5) (= (fun_app$f ?v0 ?v5) (fun_app$f ?v1 ?v5))) ) ) (exists ((?v4 Nat$)) (forall ((?v5 Nat$)) (=> (fun_app$f (less$ ?v4) ?v5) (= (fun_app$f ?v2 ?v5) (fun_app$f ?v3 ?v5))) ) )) (exists ((?v4 Nat$)) (forall ((?v5 Nat$)) (=> (fun_app$f (less$ ?v4) ?v5) (= (or (fun_app$f ?v0 ?v5) (fun_app$f ?v2 ?v5)) (or (fun_app$f ?v1 ?v5) (fun_app$f ?v3 ?v5)))) ) )) ))
(assert (forall ((?v0 Nat_bool_fun$) (?v1 Nat_bool_fun$) (?v2 Nat_bool_fun$) (?v3 Nat_bool_fun$)) (=> (and (exists ((?v4 Nat$)) (forall ((?v5 Nat$)) (=> (fun_app$f (less$ ?v5) ?v4) (= (fun_app$f ?v0 ?v5) (fun_app$f ?v1 ?v5))) ) ) (exists ((?v4 Nat$)) (forall ((?v5 Nat$)) (=> (fun_app$f (less$ ?v5) ?v4) (= (fun_app$f ?v2 ?v5) (fun_app$f ?v3 ?v5))) ) )) (exists ((?v4 Nat$)) (forall ((?v5 Nat$)) (=> (fun_app$f (less$ ?v5) ?v4) (= (and (fun_app$f ?v0 ?v5) (fun_app$f ?v2 ?v5)) (and (fun_app$f ?v1 ?v5) (fun_app$f ?v3 ?v5)))) ) )) ))
(assert (forall ((?v0 Nat_bool_fun$) (?v1 Nat_bool_fun$) (?v2 Nat_bool_fun$) (?v3 Nat_bool_fun$)) (=> (and (exists ((?v4 Nat$)) (forall ((?v5 Nat$)) (=> (fun_app$f (less$ ?v5) ?v4) (= (fun_app$f ?v0 ?v5) (fun_app$f ?v1 ?v5))) ) ) (exists ((?v4 Nat$)) (forall ((?v5 Nat$)) (=> (fun_app$f (less$ ?v5) ?v4) (= (fun_app$f ?v2 ?v5) (fun_app$f ?v3 ?v5))) ) )) (exists ((?v4 Nat$)) (forall ((?v5 Nat$)) (=> (fun_app$f (less$ ?v5) ?v4) (= (or (fun_app$f ?v0 ?v5) (fun_app$f ?v2 ?v5)) (or (fun_app$f ?v1 ?v5) (fun_app$f ?v3 ?v5)))) ) )) ))
(assert (forall ((?v0 Nat$)) (exists ((?v1 Nat$)) (forall ((?v2 Nat$)) (=> (fun_app$f (less$ ?v1) ?v2) (= (= ?v2 ?v0) false)) ) ) ))
(assert (forall ((?v0 Nat$)) (exists ((?v1 Nat$)) (forall ((?v2 Nat$)) (=> (fun_app$f (less$ ?v1) ?v2) (= (not (= ?v2 ?v0)) true)) ) ) ))
(assert (forall ((?v0 Nat$)) (exists ((?v1 Nat$)) (forall ((?v2 Nat$)) (=> (fun_app$f (less$ ?v1) ?v2) (= (fun_app$f (less$ ?v2) ?v0) false)) ) ) ))
(assert (forall ((?v0 Nat$)) (exists ((?v1 Nat$)) (forall ((?v2 Nat$)) (=> (fun_app$f (less$ ?v1) ?v2) (= (fun_app$f (less$ ?v0) ?v2) true)) ) ) ))
(assert (forall ((?v0 A_a_bool_fun_fun$) (?v1 B_b_bool_fun_fun$) (?v2 Color$) (?v3 A_b_rbt$) (?v4 A$) (?v5 B$) (?v6 A_b_rbt$)) (not (fun_app$b (fun_app$c (rel_rbt$ ?v0 ?v1) (branch$ ?v2 ?v3 ?v4 ?v5 ?v6)) empty$)) ))
(assert (forall ((?v0 A_a_bool_fun_fun$) (?v1 B_b_bool_fun_fun$) (?v2 Color$) (?v3 A_b_rbt$) (?v4 A$) (?v5 B$) (?v6 A_b_rbt$)) (not (fun_app$b (fun_app$c (rel_rbt$ ?v0 ?v1) empty$) (branch$ ?v2 ?v3 ?v4 ?v5 ?v6))) ))
(assert (forall ((?v0 Nat_nat_fun$)) (= (strict_mono$ ?v0) (forall ((?v1 Nat$) (?v2 Nat$)) (=> (fun_app$f (less$ ?v1) ?v2) (fun_app$f (less$ (fun_app$g ?v0 ?v1)) (fun_app$g ?v0 ?v2))) )) ))
(assert (forall ((?v0 Nat_nat_fun$)) (=> (forall ((?v1 Nat$) (?v2 Nat$)) (=> (fun_app$f (less$ ?v1) ?v2) (fun_app$f (less$ (fun_app$g ?v0 ?v1)) (fun_app$g ?v0 ?v2))) ) (strict_mono$ ?v0)) ))
(assert (forall ((?v0 Nat_nat_fun$) (?v1 Nat$) (?v2 Nat$)) (=> (and (strict_mono$ ?v0) (fun_app$f (less$ ?v1) ?v2)) (fun_app$f (less$ (fun_app$g ?v0 ?v1)) (fun_app$g ?v0 ?v2))) ))
(assert (forall ((?v0 A_a_bool_fun_fun$) (?v1 B_b_bool_fun_fun$) (?v2 A_b_rbt$)) (=> (and (forall ((?v3 A$)) (fun_app$a (fun_app$e ?v0 ?v3) ?v3) ) (forall ((?v3 B$)) (fun_app$ (fun_app$d ?v1 ?v3) ?v3) )) (fun_app$b (fun_app$c (rel_rbt$ ?v0 ?v1) ?v2) ?v2)) ))
(assert (= (rel_rbt$ uub$ uuc$) uud$))
(assert (forall ((?v0 Nat_nat_fun$) (?v1 Nat$) (?v2 Nat$)) (=> (strict_mono$ ?v0) (= (= (fun_app$g ?v0 ?v1) (fun_app$g ?v0 ?v2)) (= ?v1 ?v2))) ))
(assert (forall ((?v0 Color$) (?v1 Color$) (?v2 A_a_bool_fun_fun$) (?v3 B_b_bool_fun_fun$) (?v4 A_b_rbt$) (?v5 A_b_rbt$) (?v6 A$) (?v7 A$) (?v8 B$) (?v9 B$) (?v10 A_b_rbt$) (?v11 A_b_rbt$)) (=> (and (= ?v0 ?v1) (and (fun_app$b (fun_app$c (rel_rbt$ ?v2 ?v3) ?v4) ?v5) (and (fun_app$a (fun_app$e ?v2 ?v6) ?v7) (and (fun_app$ (fun_app$d ?v3 ?v8) ?v9) (fun_app$b (fun_app$c (rel_rbt$ ?v2 ?v3) ?v10) ?v11))))) (fun_app$b (fun_app$c (rel_rbt$ ?v2 ?v3) (branch$ ?v0 ?v4 ?v6 ?v8 ?v10)) (branch$ ?v1 ?v5 ?v7 ?v9 ?v11))) ))
(assert (forall ((?v0 A_a_bool_fun_fun$) (?v1 B_b_bool_fun_fun$) (?v2 Color$) (?v3 A_b_rbt$) (?v4 A$) (?v5 B$) (?v6 A_b_rbt$) (?v7 Color$) (?v8 A_b_rbt$) (?v9 A$) (?v10 B$) (?v11 A_b_rbt$)) (! (= (fun_app$b (fun_app$c (rel_rbt$ ?v0 ?v1) (branch$ ?v2 ?v3 ?v4 ?v5 ?v6)) (branch$ ?v7 ?v8 ?v9 ?v10 ?v11)) (and (= ?v2 ?v7) (and (fun_app$b (fun_app$c (rel_rbt$ ?v0 ?v1) ?v3) ?v8) (and (fun_app$a (fun_app$e ?v0 ?v4) ?v9) (and (fun_app$ (fun_app$d ?v1 ?v5) ?v10) (fun_app$b (fun_app$c (rel_rbt$ ?v0 ?v1) ?v6) ?v11)))))) :pattern ((fun_app$b (fun_app$c (rel_rbt$ ?v0 ?v1) (branch$ ?v2 ?v3 ?v4 ?v5 ?v6)) (branch$ ?v7 ?v8 ?v9 ?v10 ?v11))))))
(assert (forall ((?v0 A_a_bool_fun_fun$) (?v1 B_b_bool_fun_fun$)) (fun_app$b (fun_app$c (rel_rbt$ ?v0 ?v1) empty$) empty$) ))
(assert (forall ((?v0 Nat_nat_fun$) (?v1 Nat$) (?v2 Nat$)) (=> (strict_mono$ ?v0) (= (fun_app$f (less$ (fun_app$g ?v0 ?v1)) (fun_app$g ?v0 ?v2)) (fun_app$f (less$ ?v1) ?v2))) ))
(assert (forall ((?v0 Color$) (?v1 A_b_rbt$) (?v2 A$) (?v3 B$) (?v4 A_b_rbt$)) (! (= (bheight$ (branch$ ?v0 ?v1 ?v2 ?v3 ?v4)) (ite (= ?v0 b$) (suc$ (bheight$ ?v1)) (bheight$ ?v1))) :pattern ((branch$ ?v0 ?v1 ?v2 ?v3 ?v4)))))
(assert (forall ((?v0 B$) (?v1 Color$) (?v2 A_b_rbt$) (?v3 A$) (?v4 A_b_rbt$)) (member$ ?v0 (set2_rbt$ (branch$ ?v1 ?v2 ?v3 ?v0 ?v4))) ))
(assert (forall ((?v0 A$) (?v1 Color$) (?v2 A_b_rbt$) (?v3 B$) (?v4 A_b_rbt$)) (member$a ?v0 (set1_rbt$ (branch$ ?v1 ?v2 ?v0 ?v3 ?v4))) ))
(assert (forall ((?v0 B$) (?v1 A_b_rbt$) (?v2 Color$) (?v3 A_b_rbt$) (?v4 A$) (?v5 B$)) (=> (member$ ?v0 (set2_rbt$ ?v1)) (member$ ?v0 (set2_rbt$ (branch$ ?v2 ?v3 ?v4 ?v5 ?v1)))) ))
(assert (forall ((?v0 B$) (?v1 A_b_rbt$) (?v2 Color$) (?v3 A$) (?v4 B$) (?v5 A_b_rbt$)) (=> (member$ ?v0 (set2_rbt$ ?v1)) (member$ ?v0 (set2_rbt$ (branch$ ?v2 ?v1 ?v3 ?v4 ?v5)))) ))
(assert (forall ((?v0 B_b_bool_fun_fun$) (?v1 B_b_bool_fun_fun$) (?v2 B_b_rbt$) (?v3 B_b_rbt$) (?v4 B_b_bool_fun_fun$) (?v5 B_b_bool_fun_fun$)) (=> (and (rel_rbt$a ?v0 ?v1 ?v2 ?v3) (and (forall ((?v6 B$) (?v7 B$)) (=> (and (member$ ?v6 (set1_rbt$a ?v2)) (and (member$ ?v7 (set1_rbt$a ?v3)) (fun_app$ (fun_app$d ?v0 ?v6) ?v7))) (fun_app$ (fun_app$d ?v4 ?v6) ?v7)) ) (forall ((?v6 B$) (?v7 B$)) (=> (and (member$ ?v6 (set2_rbt$a ?v2)) (and (member$ ?v7 (set2_rbt$a ?v3)) (fun_app$ (fun_app$d ?v1 ?v6) ?v7))) (fun_app$ (fun_app$d ?v5 ?v6) ?v7)) ))) (rel_rbt$a ?v4 ?v5 ?v2 ?v3)) ))
(assert (forall ((?v0 B_b_bool_fun_fun$) (?v1 B_a_bool_fun_fun$) (?v2 B_b_rbt$) (?v3 B_a_rbt$) (?v4 B_b_bool_fun_fun$) (?v5 B_a_bool_fun_fun$)) (=> (and (rel_rbt$b ?v0 ?v1 ?v2 ?v3) (and (forall ((?v6 B$) (?v7 B$)) (=> (and (member$ ?v6 (set1_rbt$a ?v2)) (and (member$ ?v7 (set1_rbt$b ?v3)) (fun_app$ (fun_app$d ?v0 ?v6) ?v7))) (fun_app$ (fun_app$d ?v4 ?v6) ?v7)) ) (forall ((?v6 B$) (?v7 A$)) (=> (and (member$ ?v6 (set2_rbt$a ?v2)) (and (member$a ?v7 (set2_rbt$b ?v3)) (fun_app$a (fun_app$h ?v1 ?v6) ?v7))) (fun_app$a (fun_app$h ?v5 ?v6) ?v7)) ))) (rel_rbt$b ?v4 ?v5 ?v2 ?v3)) ))
(assert (forall ((?v0 B_b_bool_fun_fun$) (?v1 A_b_bool_fun_fun$) (?v2 B_a_rbt$) (?v3 B_b_rbt$) (?v4 B_b_bool_fun_fun$) (?v5 A_b_bool_fun_fun$)) (=> (and (rel_rbt$c ?v0 ?v1 ?v2 ?v3) (and (forall ((?v6 B$) (?v7 B$)) (=> (and (member$ ?v6 (set1_rbt$b ?v2)) (and (member$ ?v7 (set1_rbt$a ?v3)) (fun_app$ (fun_app$d ?v0 ?v6) ?v7))) (fun_app$ (fun_app$d ?v4 ?v6) ?v7)) ) (forall ((?v6 A$) (?v7 B$)) (=> (and (member$a ?v6 (set2_rbt$b ?v2)) (and (member$ ?v7 (set2_rbt$a ?v3)) (fun_app$ (fun_app$i ?v1 ?v6) ?v7))) (fun_app$ (fun_app$i ?v5 ?v6) ?v7)) ))) (rel_rbt$c ?v4 ?v5 ?v2 ?v3)) ))
(assert (forall ((?v0 B_b_bool_fun_fun$) (?v1 A_a_bool_fun_fun$) (?v2 B_a_rbt$) (?v3 B_a_rbt$) (?v4 B_b_bool_fun_fun$) (?v5 A_a_bool_fun_fun$)) (=> (and (rel_rbt$d ?v0 ?v1 ?v2 ?v3) (and (forall ((?v6 B$) (?v7 B$)) (=> (and (member$ ?v6 (set1_rbt$b ?v2)) (and (member$ ?v7 (set1_rbt$b ?v3)) (fun_app$ (fun_app$d ?v0 ?v6) ?v7))) (fun_app$ (fun_app$d ?v4 ?v6) ?v7)) ) (forall ((?v6 A$) (?v7 A$)) (=> (and (member$a ?v6 (set2_rbt$b ?v2)) (and (member$a ?v7 (set2_rbt$b ?v3)) (fun_app$a (fun_app$e ?v1 ?v6) ?v7))) (fun_app$a (fun_app$e ?v5 ?v6) ?v7)) ))) (rel_rbt$d ?v4 ?v5 ?v2 ?v3)) ))
(assert (forall ((?v0 B_a_bool_fun_fun$) (?v1 B_a_bool_fun_fun$) (?v2 B_b_rbt$) (?v3 A_a_rbt$) (?v4 B_a_bool_fun_fun$) (?v5 B_a_bool_fun_fun$)) (=> (and (rel_rbt$e ?v0 ?v1 ?v2 ?v3) (and (forall ((?v6 B$) (?v7 A$)) (=> (and (member$ ?v6 (set1_rbt$a ?v2)) (and (member$a ?v7 (set1_rbt$c ?v3)) (fun_app$a (fun_app$h ?v0 ?v6) ?v7))) (fun_app$a (fun_app$h ?v4 ?v6) ?v7)) ) (forall ((?v6 B$) (?v7 A$)) (=> (and (member$ ?v6 (set2_rbt$a ?v2)) (and (member$a ?v7 (set2_rbt$c ?v3)) (fun_app$a (fun_app$h ?v1 ?v6) ?v7))) (fun_app$a (fun_app$h ?v5 ?v6) ?v7)) ))) (rel_rbt$e ?v4 ?v5 ?v2 ?v3)) ))
(assert (forall ((?v0 B_a_bool_fun_fun$) (?v1 A_a_bool_fun_fun$) (?v2 B_a_rbt$) (?v3 A_a_rbt$) (?v4 B_a_bool_fun_fun$) (?v5 A_a_bool_fun_fun$)) (=> (and (rel_rbt$f ?v0 ?v1 ?v2 ?v3) (and (forall ((?v6 B$) (?v7 A$)) (=> (and (member$ ?v6 (set1_rbt$b ?v2)) (and (member$a ?v7 (set1_rbt$c ?v3)) (fun_app$a (fun_app$h ?v0 ?v6) ?v7))) (fun_app$a (fun_app$h ?v4 ?v6) ?v7)) ) (forall ((?v6 A$) (?v7 A$)) (=> (and (member$a ?v6 (set2_rbt$b ?v2)) (and (member$a ?v7 (set2_rbt$c ?v3)) (fun_app$a (fun_app$e ?v1 ?v6) ?v7))) (fun_app$a (fun_app$e ?v5 ?v6) ?v7)) ))) (rel_rbt$f ?v4 ?v5 ?v2 ?v3)) ))
(assert (forall ((?v0 A_b_bool_fun_fun$) (?v1 A_b_bool_fun_fun$) (?v2 A_a_rbt$) (?v3 B_b_rbt$) (?v4 A_b_bool_fun_fun$) (?v5 A_b_bool_fun_fun$)) (=> (and (rel_rbt$g ?v0 ?v1 ?v2 ?v3) (and (forall ((?v6 A$) (?v7 B$)) (=> (and (member$a ?v6 (set1_rbt$c ?v2)) (and (member$ ?v7 (set1_rbt$a ?v3)) (fun_app$ (fun_app$i ?v0 ?v6) ?v7))) (fun_app$ (fun_app$i ?v4 ?v6) ?v7)) ) (forall ((?v6 A$) (?v7 B$)) (=> (and (member$a ?v6 (set2_rbt$c ?v2)) (and (member$ ?v7 (set2_rbt$a ?v3)) (fun_app$ (fun_app$i ?v1 ?v6) ?v7))) (fun_app$ (fun_app$i ?v5 ?v6) ?v7)) ))) (rel_rbt$g ?v4 ?v5 ?v2 ?v3)) ))
(assert (forall ((?v0 A_b_bool_fun_fun$) (?v1 A_a_bool_fun_fun$) (?v2 A_a_rbt$) (?v3 B_a_rbt$) (?v4 A_b_bool_fun_fun$) (?v5 A_a_bool_fun_fun$)) (=> (and (rel_rbt$h ?v0 ?v1 ?v2 ?v3) (and (forall ((?v6 A$) (?v7 B$)) (=> (and (member$a ?v6 (set1_rbt$c ?v2)) (and (member$ ?v7 (set1_rbt$b ?v3)) (fun_app$ (fun_app$i ?v0 ?v6) ?v7))) (fun_app$ (fun_app$i ?v4 ?v6) ?v7)) ) (forall ((?v6 A$) (?v7 A$)) (=> (and (member$a ?v6 (set2_rbt$c ?v2)) (and (member$a ?v7 (set2_rbt$b ?v3)) (fun_app$a (fun_app$e ?v1 ?v6) ?v7))) (fun_app$a (fun_app$e ?v5 ?v6) ?v7)) ))) (rel_rbt$h ?v4 ?v5 ?v2 ?v3)) ))
(assert (forall ((?v0 A_a_bool_fun_fun$) (?v1 A_a_bool_fun_fun$) (?v2 A_a_rbt$) (?v3 A_a_rbt$) (?v4 A_a_bool_fun_fun$) (?v5 A_a_bool_fun_fun$)) (=> (and (rel_rbt$i ?v0 ?v1 ?v2 ?v3) (and (forall ((?v6 A$) (?v7 A$)) (=> (and (member$a ?v6 (set1_rbt$c ?v2)) (and (member$a ?v7 (set1_rbt$c ?v3)) (fun_app$a (fun_app$e ?v0 ?v6) ?v7))) (fun_app$a (fun_app$e ?v4 ?v6) ?v7)) ) (forall ((?v6 A$) (?v7 A$)) (=> (and (member$a ?v6 (set2_rbt$c ?v2)) (and (member$a ?v7 (set2_rbt$c ?v3)) (fun_app$a (fun_app$e ?v1 ?v6) ?v7))) (fun_app$a (fun_app$e ?v5 ?v6) ?v7)) ))) (rel_rbt$i ?v4 ?v5 ?v2 ?v3)) ))
(assert (forall ((?v0 B_a_bool_fun_fun$) (?v1 B_b_bool_fun_fun$) (?v2 B_b_rbt$) (?v3 A_b_rbt$) (?v4 B_a_bool_fun_fun$) (?v5 B_b_bool_fun_fun$)) (=> (and (rel_rbt$j ?v0 ?v1 ?v2 ?v3) (and (forall ((?v6 B$) (?v7 A$)) (=> (and (member$ ?v6 (set1_rbt$a ?v2)) (and (member$a ?v7 (set1_rbt$ ?v3)) (fun_app$a (fun_app$h ?v0 ?v6) ?v7))) (fun_app$a (fun_app$h ?v4 ?v6) ?v7)) ) (forall ((?v6 B$) (?v7 B$)) (=> (and (member$ ?v6 (set2_rbt$a ?v2)) (and (member$ ?v7 (set2_rbt$ ?v3)) (fun_app$ (fun_app$d ?v1 ?v6) ?v7))) (fun_app$ (fun_app$d ?v5 ?v6) ?v7)) ))) (rel_rbt$j ?v4 ?v5 ?v2 ?v3)) ))
(assert (forall ((?v0 A$) (?v1 A_b_rbt$)) (=> (and (member$a ?v0 (set1_rbt$ ?v1)) (and (forall ((?v2 Color$) (?v3 A_b_rbt$) (?v4 A$) (?v5 B$) (?v6 A_b_rbt$)) (=> (and (= ?v1 (branch$ ?v2 ?v3 ?v4 ?v5 ?v6)) (member$a ?v0 (set1_rbt$ ?v3))) false) ) (and (forall ((?v2 Color$) (?v3 A_b_rbt$) (?v4 B$) (?v5 A_b_rbt$)) (=> (= ?v1 (branch$ ?v2 ?v3 ?v0 ?v4 ?v5)) false) ) (forall ((?v2 Color$) (?v3 A_b_rbt$) (?v4 A$) (?v5 B$) (?v6 A_b_rbt$)) (=> (and (= ?v1 (branch$ ?v2 ?v3 ?v4 ?v5 ?v6)) (member$a ?v0 (set1_rbt$ ?v6))) false) )))) false) ))
(assert (forall ((?v0 A$) (?v1 A_b_rbt$) (?v2 Color$) (?v3 A$) (?v4 B$) (?v5 A_b_rbt$)) (=> (member$a ?v0 (set1_rbt$ ?v1)) (member$a ?v0 (set1_rbt$ (branch$ ?v2 ?v1 ?v3 ?v4 ?v5)))) ))
(assert (forall ((?v0 A$) (?v1 A_b_rbt$) (?v2 Color$) (?v3 A_b_rbt$) (?v4 A$) (?v5 B$)) (=> (member$a ?v0 (set1_rbt$ ?v1)) (member$a ?v0 (set1_rbt$ (branch$ ?v2 ?v3 ?v4 ?v5 ?v1)))) ))
(assert (forall ((?v0 B$) (?v1 A_b_rbt$)) (=> (and (member$ ?v0 (set2_rbt$ ?v1)) (and (forall ((?v2 Color$) (?v3 A_b_rbt$) (?v4 A$) (?v5 B$) (?v6 A_b_rbt$)) (=> (and (= ?v1 (branch$ ?v2 ?v3 ?v4 ?v5 ?v6)) (member$ ?v0 (set2_rbt$ ?v3))) false) ) (and (forall ((?v2 Color$) (?v3 A_b_rbt$) (?v4 A$) (?v5 A_b_rbt$)) (=> (= ?v1 (branch$ ?v2 ?v3 ?v4 ?v0 ?v5)) false) ) (forall ((?v2 Color$) (?v3 A_b_rbt$) (?v4 A$) (?v5 B$) (?v6 A_b_rbt$)) (=> (and (= ?v1 (branch$ ?v2 ?v3 ?v4 ?v5 ?v6)) (member$ ?v0 (set2_rbt$ ?v6))) false) )))) false) ))
(assert (forall ((?v0 Nat_nat_fun$) (?v1 Nat$) (?v2 Nat$)) (=> (forall ((?v3 Nat$)) (fun_app$f (less$ (fun_app$g ?v0 ?v3)) (fun_app$g ?v0 (suc$ ?v3))) ) (= (fun_app$f (less$ (fun_app$g ?v0 ?v1)) (fun_app$g ?v0 ?v2)) (fun_app$f (less$ ?v1) ?v2))) ))
(assert (forall ((?v0 Nat_nat_fun$) (?v1 Nat$) (?v2 Nat$)) (=> (and (forall ((?v3 Nat$)) (fun_app$f (less$ (fun_app$g ?v0 ?v3)) (fun_app$g ?v0 (suc$ ?v3))) ) (fun_app$f (less$ ?v1) ?v2)) (fun_app$f (less$ (fun_app$g ?v0 ?v1)) (fun_app$g ?v0 ?v2))) ))
(assert (forall ((?v0 B_bool_fun$) (?v1 B_bool_fun$) (?v2 B_b_rbt$)) (= (pred_rbt$a ?v0 ?v1 ?v2) (and (forall ((?v3 B$)) (=> (member$ ?v3 (set1_rbt$a ?v2)) (fun_app$ ?v0 ?v3)) ) (forall ((?v3 B$)) (=> (member$ ?v3 (set2_rbt$a ?v2)) (fun_app$ ?v1 ?v3)) ))) ))
(assert (forall ((?v0 B_bool_fun$) (?v1 A_bool_fun$) (?v2 B_a_rbt$)) (= (pred_rbt$b ?v0 ?v1 ?v2) (and (forall ((?v3 B$)) (=> (member$ ?v3 (set1_rbt$b ?v2)) (fun_app$ ?v0 ?v3)) ) (forall ((?v3 A$)) (=> (member$a ?v3 (set2_rbt$b ?v2)) (fun_app$a ?v1 ?v3)) ))) ))
(assert (forall ((?v0 A_bool_fun$) (?v1 A_bool_fun$) (?v2 A_a_rbt$)) (= (pred_rbt$c ?v0 ?v1 ?v2) (and (forall ((?v3 A$)) (=> (member$a ?v3 (set1_rbt$c ?v2)) (fun_app$a ?v0 ?v3)) ) (forall ((?v3 A$)) (=> (member$a ?v3 (set2_rbt$c ?v2)) (fun_app$a ?v1 ?v3)) ))) ))
(assert (forall ((?v0 A_bool_fun$) (?v1 B_bool_fun$) (?v2 A_b_rbt$)) (= (pred_rbt$ ?v0 ?v1 ?v2) (and (forall ((?v3 A$)) (=> (member$a ?v3 (set1_rbt$ ?v2)) (fun_app$a ?v0 ?v3)) ) (forall ((?v3 B$)) (=> (member$ ?v3 (set2_rbt$ ?v2)) (fun_app$ ?v1 ?v3)) ))) ))
(assert (= (bheight$ empty$) zero$))
(assert (forall ((?v0 A_b_rbt$) (?v1 A_b_rbt$) (?v2 A_a_fun$) (?v3 A_a_fun$) (?v4 B_b_fun$) (?v5 B_b_fun$)) (=> (and (forall ((?v6 A$) (?v7 A$)) (=> (and (member$a ?v6 (set1_rbt$ ?v0)) (and (member$a ?v7 (set1_rbt$ ?v1)) (= (fun_app$j ?v2 ?v6) (fun_app$j ?v3 ?v7)))) (= ?v6 ?v7)) ) (and (forall ((?v6 B$) (?v7 B$)) (=> (and (member$ ?v6 (set2_rbt$ ?v0)) (and (member$ ?v7 (set2_rbt$ ?v1)) (= (fun_app$k ?v4 ?v6) (fun_app$k ?v5 ?v7)))) (= ?v6 ?v7)) ) (= (fun_app$l (map_rbt$ ?v2 ?v4) ?v0) (fun_app$l (map_rbt$ ?v3 ?v5) ?v1)))) (= ?v0 ?v1)) ))
(assert (forall ((?v0 A_a_fun$) (?v1 B_b_fun$) (?v2 Color$) (?v3 A_b_rbt$) (?v4 A$) (?v5 B$) (?v6 A_b_rbt$)) (! (= (fun_app$l (map_rbt$ ?v0 ?v1) (branch$ ?v2 ?v3 ?v4 ?v5 ?v6)) (branch$ ?v2 (fun_app$l (map_rbt$ ?v0 ?v1) ?v3) (fun_app$j ?v0 ?v4) (fun_app$k ?v1 ?v5) (fun_app$l (map_rbt$ ?v0 ?v1) ?v6))) :pattern ((fun_app$l (map_rbt$ ?v0 ?v1) (branch$ ?v2 ?v3 ?v4 ?v5 ?v6))))))
(assert (forall ((?v0 A_a_fun$) (?v1 B_b_fun$)) (! (= (fun_app$l (map_rbt$ ?v0 ?v1) empty$) empty$) :pattern ((map_rbt$ ?v0 ?v1)))))
(assert (forall ((?v0 A_b_rbt$) (?v1 A_b_rbt$) (?v2 A_a_fun$) (?v3 A_a_fun$) (?v4 B_b_fun$) (?v5 B_b_fun$)) (=> (and (= ?v0 ?v1) (and (forall ((?v6 A$)) (=> (member$a ?v6 (set1_rbt$ ?v1)) (= (fun_app$j ?v2 ?v6) (fun_app$j ?v3 ?v6))) ) (forall ((?v6 B$)) (=> (member$ ?v6 (set2_rbt$ ?v1)) (= (fun_app$k ?v4 ?v6) (fun_app$k ?v5 ?v6))) ))) (= (fun_app$l (map_rbt$ ?v2 ?v4) ?v0) (fun_app$l (map_rbt$ ?v3 ?v5) ?v1))) ))
(assert (forall ((?v0 A_b_rbt$) (?v1 A_a_fun$) (?v2 A_a_fun$) (?v3 B_b_fun$) (?v4 B_b_fun$)) (=> (and (forall ((?v5 A$)) (=> (member$a ?v5 (set1_rbt$ ?v0)) (= (fun_app$j ?v1 ?v5) (fun_app$j ?v2 ?v5))) ) (forall ((?v5 B$)) (=> (member$ ?v5 (set2_rbt$ ?v0)) (= (fun_app$k ?v3 ?v5) (fun_app$k ?v4 ?v5))) )) (= (fun_app$l (map_rbt$ ?v1 ?v3) ?v0) (fun_app$l (map_rbt$ ?v2 ?v4) ?v0))) ))
(assert (= (size_color$ r$) zero$))
(assert (= (size$ r$) zero$))
(assert (= (size_color$ b$) zero$))
(assert (= (size$ b$) zero$))
(assert (= (size$a empty$) zero$))
(assert (not (fun_app$f (less$ zero$) zero$)))
(assert (forall ((?v0 A_nat_fun$) (?v1 B_nat_fun$)) (! (= (fun_app$m (size_rbt$ ?v0 ?v1) empty$) zero$) :pattern ((size_rbt$ ?v0 ?v1)))))
(assert (forall ((?v0 Nat$)) (= (fun_app$f (less$ zero$) (of_nat$ ?v0)) (fun_app$f (less$ zero$) ?v0)) ))
(assert (forall ((?v0 Nat$) (?v1 Nat$)) (= (fun_app$f (less$ (of_nat$ ?v0)) (of_nat$ ?v1)) (fun_app$f (less$ ?v0) ?v1)) ))
(assert (forall ((?v0 Nat$)) (not (fun_app$f (less$ (of_nat$ ?v0)) zero$)) ))
(assert (forall ((?v0 Nat$) (?v1 Nat$)) (=> (fun_app$f (less$ (of_nat$ ?v0)) (of_nat$ ?v1)) (fun_app$f (less$ ?v0) ?v1)) ))
(assert (forall ((?v0 Nat$) (?v1 Nat$)) (=> (fun_app$f (less$ ?v0) ?v1) (fun_app$f (less$ (of_nat$ ?v0)) (of_nat$ ?v1))) ))
(assert (forall ((?v0 Color$) (?v1 A_b_rbt$) (?v2 A$) (?v3 B$) (?v4 A_b_rbt$)) (! (= (size$a (branch$ ?v0 ?v1 ?v2 ?v3 ?v4)) (fun_app$g (plus$ (fun_app$g (plus$ (size$a ?v1)) (size$a ?v4))) (suc$ zero$))) :pattern ((branch$ ?v0 ?v1 ?v2 ?v3 ?v4)))))
(assert (= (set1_rbt$ empty$) bot$))
(assert (forall ((?v0 A_set$)) (not (less$a ?v0 bot$)) ))
(assert (forall ((?v0 B_set$)) (not (less$b ?v0 bot$a)) ))
(assert (forall ((?v0 Nat$)) (not (fun_app$f (less$ ?v0) bot$b)) ))
(assert (forall ((?v0 A_set$)) (= (not (= ?v0 bot$)) (less$a bot$ ?v0)) ))
(assert (forall ((?v0 B_set$)) (= (not (= ?v0 bot$a)) (less$b bot$a ?v0)) ))
(assert (forall ((?v0 Nat$)) (= (not (= ?v0 bot$b)) (fun_app$f (less$ bot$b) ?v0)) ))
(assert (forall ((?v0 Nat$) (?v1 Nat$) (?v2 Nat$)) (=> (and (fun_app$f (less$ zero$) ?v0) (fun_app$f (less$ ?v1) ?v2)) (fun_app$f (less$ ?v1) (fun_app$g (plus$ ?v0) ?v2))) ))
(assert (= (set2_rbt$ empty$) bot$a))
(assert (forall ((?v0 Nat$) (?v1 Nat$) (?v2 Nat$)) (= (fun_app$f (less$ (fun_app$g (plus$ ?v0) ?v1)) (fun_app$g (plus$ ?v0) ?v2)) (fun_app$f (less$ ?v1) ?v2)) ))
(assert (forall ((?v0 Nat$) (?v1 Nat$) (?v2 Nat$)) (= (fun_app$f (less$ (fun_app$g (plus$ ?v0) ?v1)) (fun_app$g (plus$ ?v2) ?v1)) (fun_app$f (less$ ?v0) ?v2)) ))
(assert (forall ((?v0 Nat$) (?v1 Nat$) (?v2 Nat$)) (=> (fun_app$f (less$ ?v0) ?v1) (fun_app$f (less$ (fun_app$g (plus$ ?v2) ?v0)) (fun_app$g (plus$ ?v2) ?v1))) ))
(assert (forall ((?v0 Nat$) (?v1 Nat$) (?v2 Nat$)) (=> (fun_app$f (less$ ?v0) ?v1) (fun_app$f (less$ (fun_app$g (plus$ ?v0) ?v2)) (fun_app$g (plus$ ?v1) ?v2))) ))
(assert (forall ((?v0 Nat$) (?v1 Nat$) (?v2 Nat$) (?v3 Nat$)) (=> (and (fun_app$f (less$ ?v0) ?v1) (fun_app$f (less$ ?v2) ?v3)) (fun_app$f (less$ (fun_app$g (plus$ ?v0) ?v2)) (fun_app$g (plus$ ?v1) ?v3))) ))
(assert (forall ((?v0 Nat$) (?v1 Nat$) (?v2 Nat$)) (=> (fun_app$f (less$ (fun_app$g (plus$ ?v0) ?v1)) (fun_app$g (plus$ ?v0) ?v2)) (fun_app$f (less$ ?v1) ?v2)) ))
(assert (forall ((?v0 Nat$) (?v1 Nat$) (?v2 Nat$)) (=> (fun_app$f (less$ (fun_app$g (plus$ ?v0) ?v1)) (fun_app$g (plus$ ?v2) ?v1)) (fun_app$f (less$ ?v0) ?v2)) ))
(assert (forall ((?v0 Nat$) (?v1 Nat$) (?v2 Nat$) (?v3 Nat$)) (=> (and (fun_app$f (less$ ?v0) ?v1) (fun_app$f (less$ ?v2) ?v3)) (fun_app$f (less$ (fun_app$g (plus$ ?v0) ?v2)) (fun_app$g (plus$ ?v1) ?v3))) ))
(assert (forall ((?v0 Nat$) (?v1 Nat$) (?v2 Nat$) (?v3 Nat$)) (=> (and (fun_app$f (less$ ?v0) ?v1) (= ?v2 ?v3)) (fun_app$f (less$ (fun_app$g (plus$ ?v0) ?v2)) (fun_app$g (plus$ ?v1) ?v3))) ))
(assert (forall ((?v0 Nat$) (?v1 Nat$) (?v2 Nat$) (?v3 Nat$)) (=> (and (= ?v0 ?v1) (fun_app$f (less$ ?v2) ?v3)) (fun_app$f (less$ (fun_app$g (plus$ ?v0) ?v2)) (fun_app$g (plus$ ?v1) ?v3))) ))
(assert (forall ((?v0 Nat$) (?v1 Nat$)) (=> (and (fun_app$f (less$ ?v0) zero$) (fun_app$f (less$ ?v1) zero$)) (fun_app$f (less$ (fun_app$g (plus$ ?v0) ?v1)) zero$)) ))
(assert (forall ((?v0 Nat$) (?v1 Nat$)) (=> (and (fun_app$f (less$ zero$) ?v0) (fun_app$f (less$ zero$) ?v1)) (fun_app$f (less$ zero$) (fun_app$g (plus$ ?v0) ?v1))) ))
(assert (fun_app$f (less$ zero$) (fun_app$g (plus$ one$) one$)))
(assert (not (fun_app$f (less$ one$) one$)))
(assert (fun_app$f (less$ zero$) one$))
(assert (not (fun_app$f (less$ one$) zero$)))
(assert (forall ((?v0 Nat$)) (fun_app$f (less$ ?v0) (fun_app$g (plus$ ?v0) one$)) ))
(assert (forall ((?v0 Nat$)) (fun_app$f (less_eq$ ?v0) ?v0) ))
(assert (forall ((?v0 A_set$)) (less_eq$a bot$ ?v0) ))
(assert (forall ((?v0 B_set$)) (less_eq$b bot$a ?v0) ))
(assert (forall ((?v0 Nat$)) (fun_app$f (less_eq$ bot$b) ?v0) ))
(assert (forall ((?v0 A_set$)) (=> (less_eq$a ?v0 bot$) (= ?v0 bot$)) ))
(assert (forall ((?v0 B_set$)) (=> (less_eq$b ?v0 bot$a) (= ?v0 bot$a)) ))
(assert (forall ((?v0 Nat$)) (=> (fun_app$f (less_eq$ ?v0) bot$b) (= ?v0 bot$b)) ))
(assert (forall ((?v0 A_set$)) (= (less_eq$a ?v0 bot$) (= ?v0 bot$)) ))
(assert (forall ((?v0 B_set$)) (= (less_eq$b ?v0 bot$a) (= ?v0 bot$a)) ))
(assert (forall ((?v0 Nat$)) (= (fun_app$f (less_eq$ ?v0) bot$b) (= ?v0 bot$b)) ))
(assert (forall ((?v0 Nat_nat_fun$) (?v1 Nat$) (?v2 Nat$)) (=> (strict_mono$ ?v0) (= (fun_app$f (less_eq$ (fun_app$g ?v0 ?v1)) (fun_app$g ?v0 ?v2)) (fun_app$f (less_eq$ ?v1) ?v2))) ))
(assert (forall ((?v0 Nat$)) (exists ((?v1 Nat$)) (forall ((?v2 Nat$)) (=> (fun_app$f (less$ ?v2) ?v1) (= (fun_app$f (less_eq$ ?v0) ?v2) false)) ) ) ))
(assert (forall ((?v0 Nat$)) (exists ((?v1 Nat$)) (forall ((?v2 Nat$)) (=> (fun_app$f (less$ ?v2) ?v1) (= (fun_app$f (less_eq$ ?v2) ?v0) true)) ) ) ))
(assert (forall ((?v0 Nat$)) (exists ((?v1 Nat$)) (forall ((?v2 Nat$)) (=> (fun_app$f (less$ ?v1) ?v2) (= (fun_app$f (less_eq$ ?v0) ?v2) true)) ) ) ))
(assert (forall ((?v0 Nat$)) (exists ((?v1 Nat$)) (forall ((?v2 Nat$)) (=> (fun_app$f (less$ ?v1) ?v2) (= (fun_app$f (less_eq$ ?v2) ?v0) false)) ) ) ))
(assert (forall ((?v0 Nat$) (?v1 Nat$)) (or (fun_app$f (less_eq$ ?v0) ?v1) (fun_app$f (less$ ?v1) ?v0)) ))
(assert (forall ((?v0 Nat$) (?v1 Nat$)) (=> (not (fun_app$f (less_eq$ ?v0) ?v1)) (fun_app$f (less$ ?v1) ?v0)) ))
(assert (forall ((?v0 Nat$) (?v1 Nat$)) (=> (not (fun_app$f (less$ ?v0) ?v1)) (fun_app$f (less_eq$ ?v1) ?v0)) ))
(check-sat)
(exit)

